
List of user-set options:

                                    Name   Value                used
                           compl_inf_tol = 1                     yes
                         constr_viol_tol = 1                     yes
                            dual_inf_tol = 1000                  yes
                           linear_solver = ma97                  yes
                              ma86_small = 1e-30                  no
                                  ma86_u = 0.0001                 no
                              ma97_order = best                  yes
                              ma97_small = 1e-30                 yes
                            ma97_switch1 = at_start              yes
                            ma97_switch2 = od_hd_reuse           yes
                                  ma97_u = 1e-06                 yes
                               ma97_umax = 0.5                   yes
                                max_iter = 1000                  yes
                    max_refinement_steps = 20                    yes
                    min_refinement_steps = 5                     yes
                                 mu_init = 1e-06                 yes
           mu_superlinear_decrease_power = 1.25                  yes
                   nlp_scaling_min_value = 1e-08                 yes
                        option_file_name = Preset_Case_291_pf.opt  yes
                             output_file = ./tmp/Preset_Case_291_pf.output  yes
                      print_user_options = yes                   yes
        required_infeasibility_reduction = 1                      no
                                     tol = 1e-08                 yes
                   warm_start_bound_frac = 1e-20                 yes
                   warm_start_bound_push = 1e-20                 yes
                   warm_start_init_point = yes                   yes
              warm_start_mult_bound_push = 1e-20                 yes
                warm_start_mult_init_max = 1e+40                 yes
             warm_start_slack_bound_frac = 1e-20                 yes
             warm_start_slack_bound_push = 1e-20                 yes

******************************************************************************
This program contains Ipopt, a library for large-scale nonlinear optimization.
 Ipopt is released as open source code under the Eclipse Public License (EPL).
         For more information visit http://projects.coin-or.org/Ipopt
******************************************************************************

This is Ipopt version 3.12.10, running with linear solver ma97.

Number of nonzeros in equality constraint Jacobian...:   123442
Number of nonzeros in inequality constraint Jacobian.:      213
Number of nonzeros in Lagrangian Hessian.............:    49069

Total number of variables............................:    31591
                     variables with only lower bounds:    12912
                variables with lower and upper bounds:    15130
                     variables with only upper bounds:        0
Total number of equality constraints.................:    31483
Total number of inequality constraints...............:       25
        inequality constraints with only lower bounds:        4
   inequality constraints with lower and upper bounds:        0
        inequality constraints with only upper bounds:       21

iter    objective    inf_pr   inf_du lg(mu)  ||d||  lg(rg) alpha_du alpha_pr  ls
   0 -4.9492709e+00 4.08e-03 1.02e+00  -6.0 0.00e+00    -  0.00e+00 0.00e+00   0
   1 -4.9486179e+00 3.70e-02 1.02e+00  -6.0 3.03e+05    -  1.30e-04 1.09e-04h  5
   2 -4.9498003e+00 3.69e-02 3.85e+01  -6.0 4.39e+03    -  1.69e-01 2.01e-03h  1
   3 -5.1141039e+00 1.70e+00 8.37e+02  -6.0 4.38e+03    -  1.21e-01 2.81e-01f  1
   4 -5.2419877e+00 3.26e+00 1.25e+03  -6.0 2.31e+03    -  5.68e-01 3.77e-01h  1
   5 -5.3182371e+00 3.41e+00 1.10e+03  -6.0 8.69e+02    -  4.90e-01 5.01e-01h  1
   6 -5.3294385e+00 2.10e+00 3.09e+03  -6.0 4.27e+02    -  1.95e-01 7.99e-01h  1
   7 -5.3036245e+00 5.25e-04 8.13e+02  -6.0 2.44e+00  -4.0 3.91e-01 1.00e+00h  1
   8 -5.3036562e+00 5.23e-04 8.02e+02  -6.0 5.83e+02    -  9.95e-02 2.21e-03h  1
   9 -5.3171657e+00 6.51e-01 6.74e+01  -6.0 1.75e+02    -  3.50e-01 1.00e+00f  1
iter    objective    inf_pr   inf_du lg(mu)  ||d||  lg(rg) alpha_du alpha_pr  ls
  10 -5.3224074e+00 9.43e-01 2.16e+02  -6.0 1.44e+03    -  1.03e-01 7.39e-02h  1
  11 -5.3337228e+00 1.44e+00 8.39e+03  -6.0 2.79e+02    -  8.28e-02 1.00e+00h  1
  12 -5.3340070e+00 1.39e+00 3.09e+04  -6.0 2.42e+02    -  8.73e-01 3.66e-02h  1
  13 -5.3410336e+00 1.42e+00 2.59e+02  -6.0 2.21e+02    -  1.00e+00 1.00e+00h  1
  14 -5.3464018e+00 1.08e+00 1.62e+04  -6.0 2.10e+02    -  2.31e-01 3.46e-01h  1
  15 -5.3630673e+00 4.31e+00 1.05e+04  -6.0 4.95e+02    -  9.63e-01 1.00e+00h  1
  16 -5.3664117e+00 4.77e+00 5.63e+06  -6.0 8.25e+01  -4.5 8.55e-03 1.67e-01h  1
  17 -5.3724457e+00 1.73e+00 8.26e+03  -6.0 3.11e+01    -  3.73e-01 1.00e+00h  1
  18 -5.3696742e+00 3.39e-03 1.96e+00  -6.0 3.74e+00  -5.0 1.00e+00 1.00e+00h  1
  19 -5.3707592e+00 3.50e-03 3.83e-01  -6.0 1.11e+01  -5.4 1.00e+00 1.00e+00h  1
iter    objective    inf_pr   inf_du lg(mu)  ||d||  lg(rg) alpha_du alpha_pr  ls
  20 -5.3738631e+00 2.96e-02 5.57e-01  -6.0 3.24e+01  -5.9 1.00e+00 1.00e+00h  1
  21 -5.3824179e+00 2.31e-01 2.67e+00  -6.0 9.07e+01  -6.4 1.00e+00 1.00e+00h  1
  22 -5.3998227e+00 9.52e-01 7.62e+00  -6.0 1.85e+02  -6.9 1.00e+00 9.97e-01h  1
  23 -5.3945505e+00 2.25e-01 8.80e+00  -6.0 5.55e+01  -7.3 1.00e+00 1.00e+00h  1
  24 -5.4073342e+00 9.19e-01 9.95e+00  -6.0 2.31e+02  -7.8 7.02e-01 7.25e-01h  1
  25 -5.4093077e+00 1.41e+00 1.66e+01  -6.0 2.88e+02  -8.3 9.16e-01 1.00e+00h  1
  26 -5.4099366e+00 7.98e+00 1.31e+02  -6.0 4.95e+03  -8.8 2.38e-01 1.28e-01h  1
  27 -5.4102278e+00 7.91e+00 9.23e+00  -6.0 2.28e+03  -8.3 7.79e-03 8.47e-02h  1
  28 -5.4102825e+00 7.20e+00 3.41e+01  -6.0 5.24e+02  -7.9 6.16e-01 9.37e-02h  1
  29 -5.4088500e+00 3.54e-01 1.09e+02  -6.0 1.55e+02  -7.5 1.15e-01 1.00e+00h  1
iter    objective    inf_pr   inf_du lg(mu)  ||d||  lg(rg) alpha_du alpha_pr  ls
  30 -5.4107347e+00 1.52e+00 8.11e+01  -6.0 1.09e+03  -8.0 2.13e-01 2.56e-01h  1
  31 -5.4166360e+00 5.55e+00 1.88e+01  -6.0 6.80e+02    -  1.00e+00 8.53e-01h  1
  32 -5.4176433e+00 6.76e+00 7.70e+00  -6.0 8.82e+02    -  6.19e-01 6.28e-01h  1
  33 -5.4172644e+00 5.81e-01 1.80e-01  -6.0 2.03e+02    -  1.00e+00 1.00e+00h  1
  34 -5.4172023e+00 4.05e-04 2.77e-03  -6.0 5.78e+00    -  1.00e+00 1.00e+00h  1
  35 -5.4172009e+00 3.32e-05 2.23e-03  -6.0 5.19e+00    -  1.00e+00 1.00e+00h  1
  36 -5.4172010e+00 8.73e-08 7.06e-06  -6.0 2.88e-01    -  1.00e+00 1.00e+00h  1
  37 -5.4177927e+00 6.86e+00 7.92e+01  -7.5 8.57e+02    -  6.19e-01 7.74e-01h  1
  38 -5.4178217e+00 1.92e+00 2.04e+01  -7.5 2.53e+02    -  8.41e-01 8.30e-01h  1
  39 -5.4178249e+00 1.91e+00 1.92e+01  -7.5 2.57e+03    -  2.03e-01 3.21e-03h  1
iter    objective    inf_pr   inf_du lg(mu)  ||d||  lg(rg) alpha_du alpha_pr  ls
  40 -5.4178134e+00 4.61e-01 8.54e-01  -7.5 1.43e+02    -  9.69e-01 1.00e+00h  1
  41 -5.4178161e+00 9.49e-03 4.03e-02  -7.5 1.19e+00    -  1.00e+00 9.79e-01h  1
  42 -5.4178161e+00 1.01e-06 6.38e-07  -7.5 1.08e-01    -  1.00e+00 1.00e+00f  1
  43 -5.4178161e+00 2.83e-10 5.80e-12  -7.5 1.79e-04    -  1.00e+00 1.00e+00h  1
  44 -5.4178178e+00 1.07e-02 9.71e-01  -9.0 3.11e+01    -  9.31e-01 8.25e-01h  1
  45 -5.4178180e+00 4.97e-04 3.32e-03  -9.0 5.51e+00    -  1.00e+00 1.00e+00h  1
  46 -5.4178180e+00 1.97e-09 2.81e-07  -9.0 3.97e-02    -  1.00e+00 1.00e+00h  1
  47 -5.4178180e+00 2.82e-10 1.42e-09  -9.0 8.23e-04    -  1.00e+00 1.00e+00h  1

Number of Iterations....: 47

                                   (scaled)                 (unscaled)
Objective...............:  -4.2326703451420995e+00   -5.4178180417818878e+00
Dual infeasibility......:   1.4181475993524373e-09    1.8152289271711198e-09
Constraint violation....:   2.8167135453487785e-10    2.8167135453487785e-10
Complementarity.........:   9.2761238414863463e-10    1.1873438517102523e-09
Overall NLP error.......:   1.4181475993524373e-09    1.8152289271711198e-09


Number of objective function evaluations             = 53
Number of objective gradient evaluations             = 48
Number of equality constraint evaluations            = 53
Number of inequality constraint evaluations          = 53
Number of equality constraint Jacobian evaluations   = 48
Number of inequality constraint Jacobian evaluations = 48
Number of Lagrangian Hessian evaluations             = 47
Total CPU secs in IPOPT (w/o function evaluations)   =    110.330
Total CPU secs in NLP function evaluations           =      1.841

EXIT: Optimal Solution Found.
